; benchmark generated from python API
(set-info :status unknown)
(declare-fun strlen_85_64 () (_ BitVec 64))
(declare-fun args_1_8 () (_ BitVec 8))
(declare-fun strlen_83_64 () (_ BitVec 64))
(declare-fun strncmp_ret_84_32 () (_ BitVec 32))
(declare-fun strncmp_ret_86_32 () (_ BitVec 32))
(declare-fun filesize_file_0_/proc/self/loginuid_88_64 () (_ BitVec 64))
(declare-fun syscall_stub_ioctl_95_32 () (_ BitVec 32))
(declare-fun syscall_stub_newfstatat_124_64 () (_ BitVec 64))
(declare-fun syscall_stub_readlink_160_64 () (_ BitVec 64))
(declare-fun mem_7fffffffffef420_174_8 () (_ BitVec 8))
(declare-fun syscall_stub_newfstatat_220_64 () (_ BitVec 64))
(declare-fun mem_7fffffffffef038_297_64 () (_ BitVec 64))
(declare-fun mem_7fffffffffeefa8_298_64 () (_ BitVec 64))
(declare-fun mem_7fffffffffeefa0_344_64 () (_ BitVec 64))
(declare-fun mem_7fffffffffef030_345_64 () (_ BitVec 64))
(declare-fun mem_7fffffffffef048_398_32 () (_ BitVec 32))
(declare-fun mem_7fffffffffeefc8_430_64 () (_ BitVec 64))
(declare-fun mem_7fffffffffef058_431_64 () (_ BitVec 64))
(declare-fun strlen_986_64 () (_ BitVec 64))
(declare-fun mem_7fffffffffef425_984_64 () (_ BitVec 64))
(declare-fun access_2286_32 () (_ BitVec 32))
(declare-fun access_3098_32 () (_ BitVec 32))
(declare-fun strlen_3581_64 () (_ BitVec 64))
(declare-fun mem_2c_3580_264 () (_ BitVec 264))
(declare-fun strlen_4902_64 () (_ BitVec 64))
(declare-fun mem_7fffffffffef740_3826_248 () (_ BitVec 248))
(assert
 (let ((?x751 (bvadd (_ bv576460752303357826 64) strlen_85_64)))
 (let (($x69 (= (_ bv0 8) args_1_8)))
 (let ((?x46 (ite $x69 (_ bv576460752303357826 64) (_ bv576460752303357827 64))))
 (= ?x46 ?x751)))))
(assert
 (let ((?x101 (bvadd (_ bv576460752303357826 64) strlen_83_64)))
 (let (($x69 (= (_ bv0 8) args_1_8)))
 (let ((?x46 (ite $x69 (_ bv576460752303357826 64) (_ bv576460752303357827 64))))
 (= ?x46 ?x101)))))
(assert
 (let (($x104 (bvule (_ bv2 64) strlen_83_64)))
 (let (($x48 (= (_ bv2 64) strlen_83_64)))
 (let (($x122 (or $x48 $x104)))
 (let (($x123 (not $x122)))
 (let (($x57 (= (_ bv45 8) args_1_8)))
 (let (($x121 (not $x57)))
 (or $x121 $x123))))))))
(assert
 (= (_ bv1 32) strncmp_ret_84_32))
(assert
 (= (_ bv1 32) strncmp_ret_86_32))
(assert
 true)
(assert
 (let (($x1210 (bvsge (_ bv0 64) filesize_file_0_/proc/self/loginuid_88_64)))
 (let ((?x1217 (ite $x1210 (_ bv0 64) filesize_file_0_/proc/self/loginuid_88_64)))
 (let ((?x1236 ((_ extract 3 0) filesize_file_0_/proc/self/loginuid_88_64)))
 (let ((?x99 (ite $x1210 (_ bv0 4) ?x1236)))
 (let (($x1110 (bvule ?x99 (_ bv12 4))))
 (let ((?x1229 ((_ extract 63 4) filesize_file_0_/proc/self/loginuid_88_64)))
 (let (($x523 (= (_ bv0 60) ?x1229)))
 (let (($x516 (or $x1210 $x523)))
 (let (($x975 (and $x516 $x1110)))
 (let ((?x1169 (ite $x975 ?x1217 (_ bv12 64))))
 (= (_ bv12 64) ?x1169))))))))))))
(assert
 (= (_ bv0 32) syscall_stub_ioctl_95_32))
(assert
 (let ((?x3122 ((_ extract 31 0) syscall_stub_newfstatat_124_64)))
 (bvule ?x3122 (_ bv4294963200 32))))
(assert
 (= (_ bv13 64) syscall_stub_readlink_160_64))
(assert
 (= (_ bv47 8) mem_7fffffffffef420_174_8))
(assert
 (let ((?x116194 ((_ extract 31 0) syscall_stub_newfstatat_220_64)))
 (bvule ?x116194 (_ bv4294963200 32))))
(assert
 (= mem_7fffffffffeefa8_298_64 mem_7fffffffffef038_297_64))
(assert
 (= mem_7fffffffffef030_345_64 mem_7fffffffffeefa0_344_64))
(assert
 (let ((?x278280 ((_ extract 15 12) mem_7fffffffffef048_398_32)))
 (= (_ bv2 4) ?x278280)))
(assert
 (= mem_7fffffffffef058_431_64 mem_7fffffffffeefc8_430_64))
(assert
 (let ((?x448396 (bvadd (_ bv576460752303354917 64) strlen_986_64)))
 (let ((?x448386 ((_ extract 7 0) mem_7fffffffffef425_984_64)))
 (let (($x448379 (= (_ bv0 8) ?x448386)))
 (let ((?x116240 (ite $x448379 (_ bv576460752303354924 64) (_ bv576460752303354925 64))))
 (let ((?x448338 ((_ extract 15 8) mem_7fffffffffef425_984_64)))
 (let (($x442876 (= (_ bv0 8) ?x448338)))
 (let ((?x119400 (ite $x442876 (_ bv576460752303354923 64) ?x116240)))
 (let ((?x448374 ((_ extract 23 16) mem_7fffffffffef425_984_64)))
 (let (($x446240 (= (_ bv0 8) ?x448374)))
 (let ((?x276917 (ite $x446240 (_ bv576460752303354922 64) ?x119400)))
 (let ((?x442858 ((_ extract 31 24) mem_7fffffffffef425_984_64)))
 (let (($x448342 (= (_ bv0 8) ?x442858)))
 (let ((?x276826 (ite $x448342 (_ bv576460752303354921 64) ?x276917)))
 (let ((?x446360 ((_ extract 39 32) mem_7fffffffffef425_984_64)))
 (let (($x448387 (= (_ bv0 8) ?x446360)))
 (let ((?x119860 (ite $x448387 (_ bv576460752303354920 64) ?x276826)))
 (let ((?x448362 ((_ extract 47 40) mem_7fffffffffef425_984_64)))
 (let (($x446494 (= (_ bv0 8) ?x448362)))
 (let ((?x117259 (ite $x446494 (_ bv576460752303354919 64) ?x119860)))
 (let ((?x448389 ((_ extract 55 48) mem_7fffffffffef425_984_64)))
 (let (($x442868 (= (_ bv0 8) ?x448389)))
 (let ((?x119730 (ite $x442868 (_ bv576460752303354918 64) ?x117259)))
 (let ((?x446462 ((_ extract 63 56) mem_7fffffffffef425_984_64)))
 (let (($x446502 (= (_ bv0 8) ?x446462)))
 (let ((?x116346 (ite $x446502 (_ bv576460752303354917 64) ?x119730)))
 (= ?x116346 ?x448396)))))))))))))))))))))))))))
(assert
 (let ((?x448467 (bvadd (_ bv1 64) strlen_986_64)))
 (let ((?x449136 ((_ extract 63 4) ?x448467)))
 (= (_ bv0 60) ?x449136))))
(assert
 (let ((?x449132 ((_ extract 3 0) strlen_986_64)))
 (let ((?x446635 (bvadd (_ bv1 4) ?x449132)))
 (bvule ?x446635 (_ bv9 4)))))
(assert
 (let ((?x448467 (bvadd (_ bv1 64) strlen_986_64)))
 (let (($x448493 (bvule (_ bv31 64) strlen_986_64)))
 (let (($x448643 (bvule strlen_986_64 (_ bv18446744073709551614 64))))
 (let (($x448969 (and $x448643 $x448493)))
 (let ((?x448926 (ite $x448969 (_ bv32 64) ?x448467)))
 (bvule (_ bv1 64) ?x448926)))))))
(assert
 (let (($x448493 (bvule (_ bv31 64) strlen_986_64)))
 (let (($x448726 (not $x448493)))
 (let (($x448643 (bvule strlen_986_64 (_ bv18446744073709551614 64))))
 (let (($x448713 (not $x448643)))
 (or $x448713 $x448726))))))
(assert
 (= (_ bv0 32) access_2286_32))
(assert
 (= (_ bv0 32) access_3098_32))
(assert
 (= (_ bv31 64) strlen_3581_64))
(assert
 (let ((?x737207 ((_ extract 15 8) mem_2c_3580_264)))
 (= (_ bv0 8) ?x737207)))
(assert
 (let ((?x736805 ((_ extract 23 16) mem_2c_3580_264)))
 (let (($x736709 (= (_ bv0 8) ?x736805)))
 (not $x736709))))
(assert
 (let ((?x736818 ((_ extract 31 24) mem_2c_3580_264)))
 (let (($x736808 (= (_ bv0 8) ?x736818)))
 (not $x736808))))
(assert
 (let ((?x736723 ((_ extract 39 32) mem_2c_3580_264)))
 (let (($x736798 (= (_ bv0 8) ?x736723)))
 (not $x736798))))
(assert
 (let ((?x736785 ((_ extract 47 40) mem_2c_3580_264)))
 (let (($x736801 (= (_ bv0 8) ?x736785)))
 (not $x736801))))
(assert
 (let ((?x736729 ((_ extract 55 48) mem_2c_3580_264)))
 (let (($x736007 (= (_ bv0 8) ?x736729)))
 (not $x736007))))
(assert
 (let ((?x736835 ((_ extract 63 56) mem_2c_3580_264)))
 (let (($x736829 (= (_ bv0 8) ?x736835)))
 (not $x736829))))
(assert
 (let ((?x736743 ((_ extract 71 64) mem_2c_3580_264)))
 (let (($x736766 (= (_ bv0 8) ?x736743)))
 (not $x736766))))
(assert
 (let ((?x736691 ((_ extract 79 72) mem_2c_3580_264)))
 (let (($x736757 (= (_ bv0 8) ?x736691)))
 (not $x736757))))
(assert
 (let ((?x736840 ((_ extract 87 80) mem_2c_3580_264)))
 (let (($x736819 (= (_ bv0 8) ?x736840)))
 (not $x736819))))
(assert
 (let ((?x736908 ((_ extract 95 88) mem_2c_3580_264)))
 (let (($x736797 (= (_ bv0 8) ?x736908)))
 (not $x736797))))
(assert
 (let ((?x736977 ((_ extract 103 96) mem_2c_3580_264)))
 (let (($x736880 (= (_ bv0 8) ?x736977)))
 (not $x736880))))
(assert
 (let ((?x735796 ((_ extract 111 104) mem_2c_3580_264)))
 (let (($x737019 (= (_ bv0 8) ?x735796)))
 (not $x737019))))
(assert
 (let ((?x736863 ((_ extract 119 112) mem_2c_3580_264)))
 (let (($x736716 (= (_ bv0 8) ?x736863)))
 (not $x736716))))
(assert
 (let ((?x736685 ((_ extract 127 120) mem_2c_3580_264)))
 (let (($x736816 (= (_ bv0 8) ?x736685)))
 (not $x736816))))
(assert
 (let ((?x736837 ((_ extract 135 128) mem_2c_3580_264)))
 (let (($x736855 (= (_ bv0 8) ?x736837)))
 (not $x736855))))
(assert
 (let ((?x737009 ((_ extract 143 136) mem_2c_3580_264)))
 (let (($x737108 (= (_ bv0 8) ?x737009)))
 (not $x737108))))
(assert
 (let ((?x736937 ((_ extract 151 144) mem_2c_3580_264)))
 (let (($x736771 (= (_ bv0 8) ?x736937)))
 (not $x736771))))
(assert
 (let ((?x737162 ((_ extract 159 152) mem_2c_3580_264)))
 (let (($x736828 (= (_ bv0 8) ?x737162)))
 (not $x736828))))
(assert
 (let ((?x737062 ((_ extract 167 160) mem_2c_3580_264)))
 (let (($x736724 (= (_ bv0 8) ?x737062)))
 (not $x736724))))
(assert
 (let ((?x736064 ((_ extract 175 168) mem_2c_3580_264)))
 (let (($x736044 (= (_ bv0 8) ?x736064)))
 (not $x736044))))
(assert
 (let ((?x734029 ((_ extract 183 176) mem_2c_3580_264)))
 (let (($x736687 (= (_ bv0 8) ?x734029)))
 (not $x736687))))
(assert
 (let ((?x736707 ((_ extract 191 184) mem_2c_3580_264)))
 (let (($x736734 (= (_ bv0 8) ?x736707)))
 (not $x736734))))
(assert
 (let ((?x736885 ((_ extract 199 192) mem_2c_3580_264)))
 (let (($x736881 (= (_ bv0 8) ?x736885)))
 (not $x736881))))
(assert
 (let ((?x736877 ((_ extract 207 200) mem_2c_3580_264)))
 (let (($x736873 (= (_ bv0 8) ?x736877)))
 (not $x736873))))
(assert
 (let ((?x736869 ((_ extract 215 208) mem_2c_3580_264)))
 (let (($x736865 (= (_ bv0 8) ?x736869)))
 (not $x736865))))
(assert
 (let ((?x736748 ((_ extract 223 216) mem_2c_3580_264)))
 (let (($x736841 (= (_ bv0 8) ?x736748)))
 (not $x736841))))
(assert
 (let ((?x736856 ((_ extract 231 224) mem_2c_3580_264)))
 (let (($x736843 (= (_ bv0 8) ?x736856)))
 (not $x736843))))
(assert
 (let ((?x736697 ((_ extract 239 232) mem_2c_3580_264)))
 (let (($x736733 (= (_ bv0 8) ?x736697)))
 (not $x736733))))
(assert
 (let ((?x736834 ((_ extract 247 240) mem_2c_3580_264)))
 (let (($x736809 (= (_ bv0 8) ?x736834)))
 (not $x736809))))
(assert
 (let ((?x735949 ((_ extract 255 248) mem_2c_3580_264)))
 (let (($x736793 (= (_ bv0 8) ?x735949)))
 (not $x736793))))
(assert
 (let ((?x736759 ((_ extract 263 256) mem_2c_3580_264)))
 (let (($x736782 (= (_ bv0 8) ?x736759)))
 (not $x736782))))
(assert
 (let ((?x852409 ((_ extract 7 0) mem_7fffffffffef740_3826_248)))
 (let ((?x852427 ((_ extract 15 0) mem_7fffffffffef740_3826_248)))
 (let ((?x852445 ((_ extract 23 0) mem_7fffffffffef740_3826_248)))
 (let ((?x852463 ((_ extract 31 0) mem_7fffffffffef740_3826_248)))
 (let ((?x852481 ((_ extract 39 0) mem_7fffffffffef740_3826_248)))
 (let ((?x852499 ((_ extract 47 0) mem_7fffffffffef740_3826_248)))
 (let ((?x852517 ((_ extract 55 0) mem_7fffffffffef740_3826_248)))
 (let ((?x852535 ((_ extract 63 0) mem_7fffffffffef740_3826_248)))
 (let ((?x852553 ((_ extract 71 0) mem_7fffffffffef740_3826_248)))
 (let ((?x894291 ((_ extract 79 0) mem_7fffffffffef740_3826_248)))
 (let ((?x890801 ((_ extract 87 0) mem_7fffffffffef740_3826_248)))
 (let ((?x902179 ((_ extract 95 0) mem_7fffffffffef740_3826_248)))
 (let ((?x893799 ((_ extract 103 0) mem_7fffffffffef740_3826_248)))
 (let ((?x734859 ((_ extract 111 0) mem_7fffffffffef740_3826_248)))
 (let ((?x893069 ((_ extract 119 0) mem_7fffffffffef740_3826_248)))
 (let ((?x738852 ((_ extract 127 0) mem_7fffffffffef740_3826_248)))
 (let ((?x890849 ((_ extract 135 0) mem_7fffffffffef740_3826_248)))
 (let ((?x898385 ((_ extract 143 0) mem_7fffffffffef740_3826_248)))
 (let ((?x476999 ((_ extract 151 0) mem_7fffffffffef740_3826_248)))
 (let ((?x893696 ((_ extract 159 0) mem_7fffffffffef740_3826_248)))
 (let ((?x571375 ((_ extract 167 0) mem_7fffffffffef740_3826_248)))
 (let ((?x898562 ((_ extract 175 0) mem_7fffffffffef740_3826_248)))
 (let ((?x479817 ((_ extract 183 0) mem_7fffffffffef740_3826_248)))
 (let ((?x737144 ((_ extract 191 0) mem_7fffffffffef740_3826_248)))
 (let ((?x737166 ((_ extract 199 0) mem_7fffffffffef740_3826_248)))
 (let ((?x737121 ((_ extract 207 0) mem_7fffffffffef740_3826_248)))
 (let ((?x737110 ((_ extract 215 0) mem_7fffffffffef740_3826_248)))
 (let ((?x737045 ((_ extract 223 0) mem_7fffffffffef740_3826_248)))
 (let ((?x736692 ((_ extract 231 0) mem_7fffffffffef740_3826_248)))
 (let ((?x737617 ((_ extract 239 0) mem_7fffffffffef740_3826_248)))
 (let ((?x891465 ((_ extract 263 16) mem_2c_3580_264)))
 (let (($x897137 (= (_ bv1 64) strlen_3581_64)))
 (let ((?x736831 (ite $x897137 ?x891465 mem_7fffffffffef740_3826_248)))
 (let ((?x737612 ((_ extract 247 240) ?x736831)))
 (let ((?x736741 (concat ?x737612 ?x737617)))
 (let (($x736255 (= (_ bv2 64) strlen_3581_64)))
 (let ((?x737603 (ite $x736255 ?x891465 ?x736741)))
 (let ((?x736799 ((_ extract 247 232) ?x737603)))
 (let ((?x736688 (concat ?x736799 ?x736692)))
 (let (($x897132 (= (_ bv3 64) strlen_3581_64)))
 (let ((?x736767 (ite $x897132 ?x891465 ?x736688)))
 (let ((?x737107 ((_ extract 247 224) ?x736767)))
 (let ((?x737112 (concat ?x737107 ?x737045)))
 (let (($x896891 (= (_ bv4 64) strlen_3581_64)))
 (let ((?x737105 (ite $x896891 ?x891465 ?x737112)))
 (let ((?x737117 ((_ extract 247 216) ?x737105)))
 (let ((?x737122 (concat ?x737117 ?x737110)))
 (let (($x897128 (= (_ bv5 64) strlen_3581_64)))
 (let ((?x737115 (ite $x897128 ?x891465 ?x737122)))
 (let ((?x737126 ((_ extract 247 208) ?x737115)))
 (let ((?x737132 (concat ?x737126 ?x737121)))
 (let (($x891594 (= (_ bv6 64) strlen_3581_64)))
 (let ((?x736905 (ite $x891594 ?x891465 ?x737132)))
 (let ((?x737182 ((_ extract 247 200) ?x736905)))
 (let ((?x737173 (concat ?x737182 ?x737166)))
 (let (($x897099 (= (_ bv7 64) strlen_3581_64)))
 (let ((?x737186 (ite $x897099 ?x891465 ?x737173)))
 (let ((?x737210 ((_ extract 247 192) ?x737186)))
 (let ((?x467343 (concat ?x737210 ?x737144)))
 (let (($x891567 (= (_ bv8 64) strlen_3581_64)))
 (let ((?x890797 (ite $x891567 ?x891465 ?x467343)))
 (let ((?x481131 ((_ extract 247 184) ?x890797)))
 (let ((?x891007 (concat ?x481131 ?x479817)))
 (let (($x897048 (= (_ bv9 64) strlen_3581_64)))
 (let ((?x898404 (ite $x897048 ?x891465 ?x891007)))
 (let ((?x898439 ((_ extract 247 176) ?x898404)))
 (let ((?x895769 (concat ?x898439 ?x898562)))
 (let (($x438563 (= (_ bv10 64) strlen_3581_64)))
 (let ((?x891225 (ite $x438563 ?x891465 ?x895769)))
 (let ((?x890835 ((_ extract 247 168) ?x891225)))
 (let ((?x898382 (concat ?x890835 ?x571375)))
 (let (($x897045 (= (_ bv11 64) strlen_3581_64)))
 (let ((?x571428 (ite $x897045 ?x891465 ?x898382)))
 (let ((?x556738 ((_ extract 247 160) ?x571428)))
 (let ((?x475971 (concat ?x556738 ?x893696)))
 (let (($x891549 (= (_ bv12 64) strlen_3581_64)))
 (let ((?x734788 (ite $x891549 ?x891465 ?x475971)))
 (let ((?x734837 ((_ extract 247 152) ?x734788)))
 (let ((?x739258 (concat ?x734837 ?x476999)))
 (let (($x897040 (= (_ bv13 64) strlen_3581_64)))
 (let ((?x476468 (ite $x897040 ?x891465 ?x739258)))
 (let ((?x478656 ((_ extract 247 144) ?x476468)))
 (let ((?x477269 (concat ?x478656 ?x898385)))
 (let (($x490269 (= (_ bv14 64) strlen_3581_64)))
 (let ((?x895074 (ite $x490269 ?x891465 ?x477269)))
 (let ((?x898592 ((_ extract 247 136) ?x895074)))
 (let ((?x893772 (concat ?x898592 ?x890849)))
 (let (($x896902 (= (_ bv15 64) strlen_3581_64)))
 (let ((?x559144 (ite $x896902 ?x891465 ?x893772)))
 (let ((?x556655 ((_ extract 247 128) ?x559144)))
 (let ((?x739646 (concat ?x556655 ?x738852)))
 (let (($x442256 (= (_ bv16 64) strlen_3581_64)))
 (let ((?x740146 (ite $x442256 ?x891465 ?x739646)))
 (let ((?x571196 ((_ extract 247 120) ?x740146)))
 (let ((?x571404 (concat ?x571196 ?x893069)))
 (let (($x897032 (= (_ bv17 64) strlen_3581_64)))
 (let ((?x736948 (ite $x897032 ?x891465 ?x571404)))
 (let ((?x895015 ((_ extract 247 112) ?x736948)))
 (let ((?x895604 (concat ?x895015 ?x734859)))
 (let (($x897033 (= (_ bv18 64) strlen_3581_64)))
 (let ((?x739884 (ite $x897033 ?x891465 ?x895604)))
 (let ((?x735033 ((_ extract 247 104) ?x739884)))
 (let ((?x560074 (concat ?x735033 ?x893799)))
 (let (($x896860 (= (_ bv19 64) strlen_3581_64)))
 (let ((?x890832 (ite $x896860 ?x891465 ?x560074)))
 (let ((?x890805 ((_ extract 247 96) ?x890832)))
 (let ((?x558943 (concat ?x890805 ?x902179)))
 (let (($x897029 (= (_ bv20 64) strlen_3581_64)))
 (let ((?x477589 (ite $x897029 ?x891465 ?x558943)))
 (let ((?x897131 ((_ extract 247 88) ?x477589)))
 (let ((?x890829 (concat ?x897131 ?x890801)))
 (let (($x896842 (= (_ bv21 64) strlen_3581_64)))
 (let ((?x479424 (ite $x896842 ?x891465 ?x890829)))
 (let ((?x476743 ((_ extract 247 80) ?x479424)))
 (let ((?x738565 (concat ?x476743 ?x894291)))
 (let (($x896862 (= (_ bv22 64) strlen_3581_64)))
 (let ((?x559470 (ite $x896862 ?x891465 ?x738565)))
 (let ((?x478427 ((_ extract 247 72) ?x559470)))
 (let ((?x852548 (concat ?x478427 ?x852553)))
 (let (($x891429 (= (_ bv23 64) strlen_3581_64)))
 (let ((?x852545 (ite $x891429 ?x891465 ?x852548)))
 (let ((?x852540 ((_ extract 247 64) ?x852545)))
 (let ((?x852530 (concat ?x852540 ?x852535)))
 (let (($x891438 (= (_ bv24 64) strlen_3581_64)))
 (let ((?x852527 (ite $x891438 ?x891465 ?x852530)))
 (let ((?x852522 ((_ extract 247 56) ?x852527)))
 (let ((?x852512 (concat ?x852522 ?x852517)))
 (let (($x891560 (= (_ bv25 64) strlen_3581_64)))
 (let ((?x852509 (ite $x891560 ?x891465 ?x852512)))
 (let ((?x852504 ((_ extract 247 48) ?x852509)))
 (let ((?x852494 (concat ?x852504 ?x852499)))
 (let (($x891558 (= (_ bv26 64) strlen_3581_64)))
 (let ((?x852491 (ite $x891558 ?x891465 ?x852494)))
 (let ((?x852486 ((_ extract 247 40) ?x852491)))
 (let ((?x852476 (concat ?x852486 ?x852481)))
 (let (($x891578 (= (_ bv27 64) strlen_3581_64)))
 (let ((?x852473 (ite $x891578 ?x891465 ?x852476)))
 (let ((?x852468 ((_ extract 247 32) ?x852473)))
 (let ((?x852458 (concat ?x852468 ?x852463)))
 (let (($x891576 (= (_ bv28 64) strlen_3581_64)))
 (let ((?x852455 (ite $x891576 ?x891465 ?x852458)))
 (let ((?x852450 ((_ extract 247 24) ?x852455)))
 (let ((?x852440 (concat ?x852450 ?x852445)))
 (let (($x891596 (= (_ bv29 64) strlen_3581_64)))
 (let ((?x852437 (ite $x891596 ?x891465 ?x852440)))
 (let ((?x852432 ((_ extract 247 16) ?x852437)))
 (let ((?x852422 (concat ?x852432 ?x852427)))
 (let (($x896817 (= (_ bv30 64) strlen_3581_64)))
 (let ((?x852419 (ite $x896817 ?x891465 ?x852422)))
 (let ((?x852414 ((_ extract 247 8) ?x852419)))
 (let ((?x852404 (concat ?x852414 ?x852409)))
 (let (($x891605 (= (_ bv31 64) strlen_3581_64)))
 (let ((?x852401 (ite $x891605 ?x891465 ?x852404)))
 (let ((?x1256389 ((_ extract 7 0) ?x852401)))
 (let (($x1257071 (= (_ bv0 8) ?x1256389)))
 (let ((?x567945 (ite $x1257071 (_ bv576460752303355742 64) (_ bv576460752303355743 64))))
 (let ((?x1256279 ((_ extract 15 8) ?x852401)))
 (let (($x1256264 (= (_ bv0 8) ?x1256279)))
 (let ((?x898483 (ite $x1256264 (_ bv576460752303355741 64) ?x567945)))
 (let ((?x734848 ((_ extract 23 16) ?x852401)))
 (let (($x898429 (= (_ bv0 8) ?x734848)))
 (let ((?x1256460 (ite $x898429 (_ bv576460752303355740 64) ?x898483)))
 (let ((?x1256297 ((_ extract 31 24) ?x852401)))
 (let (($x894193 (= (_ bv0 8) ?x1256297)))
 (let ((?x739774 (ite $x894193 (_ bv576460752303355739 64) ?x1256460)))
 (let ((?x1257000 ((_ extract 39 32) ?x852401)))
 (let (($x894066 (= (_ bv0 8) ?x1257000)))
 (let ((?x740102 (ite $x894066 (_ bv576460752303355738 64) ?x739774)))
 (let ((?x1256301 ((_ extract 47 40) ?x852401)))
 (let (($x892856 (= (_ bv0 8) ?x1256301)))
 (let ((?x559966 (ite $x892856 (_ bv576460752303355737 64) ?x740102)))
 (let ((?x532163 ((_ extract 55 48) ?x852401)))
 (let (($x892848 (= (_ bv0 8) ?x532163)))
 (let ((?x739269 (ite $x892848 (_ bv576460752303355736 64) ?x559966)))
 (let ((?x1256806 ((_ extract 63 56) ?x852401)))
 (let (($x891009 (= (_ bv0 8) ?x1256806)))
 (let ((?x891006 (ite $x891009 (_ bv576460752303355735 64) ?x739269)))
 (let ((?x1256824 ((_ extract 71 64) ?x852401)))
 (let (($x559912 (= (_ bv0 8) ?x1256824)))
 (let ((?x852385 (ite $x559912 (_ bv576460752303355734 64) ?x891006)))
 (let ((?x1256425 ((_ extract 79 72) ?x852401)))
 (let (($x894991 (= (_ bv0 8) ?x1256425)))
 (let ((?x852380 (ite $x894991 (_ bv576460752303355733 64) ?x852385)))
 (let ((?x1256836 ((_ extract 87 80) ?x852401)))
 (let (($x738674 (= (_ bv0 8) ?x1256836)))
 (let ((?x852377 (ite $x738674 (_ bv576460752303355732 64) ?x852380)))
 (let ((?x1256397 ((_ extract 95 88) ?x852401)))
 (let (($x738457 (= (_ bv0 8) ?x1256397)))
 (let ((?x852372 (ite $x738457 (_ bv576460752303355731 64) ?x852377)))
 (let ((?x1256334 ((_ extract 103 96) ?x852401)))
 (let (($x738393 (= (_ bv0 8) ?x1256334)))
 (let ((?x852367 (ite $x738393 (_ bv576460752303355730 64) ?x852372)))
 (let ((?x568097 ((_ extract 111 104) ?x852401)))
 (let (($x738001 (= (_ bv0 8) ?x568097)))
 (let ((?x852362 (ite $x738001 (_ bv576460752303355729 64) ?x852367)))
 (let ((?x734811 ((_ extract 119 112) ?x852401)))
 (let (($x738000 (= (_ bv0 8) ?x734811)))
 (let ((?x852359 (ite $x738000 (_ bv576460752303355728 64) ?x852362)))
 (let ((?x1256364 ((_ extract 127 120) ?x852401)))
 (let (($x735069 (= (_ bv0 8) ?x1256364)))
 (let ((?x852354 (ite $x735069 (_ bv576460752303355727 64) ?x852359)))
 (let ((?x1256367 ((_ extract 135 128) ?x852401)))
 (let (($x735012 (= (_ bv0 8) ?x1256367)))
 (let ((?x852349 (ite $x735012 (_ bv576460752303355726 64) ?x852354)))
 (let ((?x1256307 ((_ extract 143 136) ?x852401)))
 (let (($x734800 (= (_ bv0 8) ?x1256307)))
 (let ((?x852344 (ite $x734800 (_ bv576460752303355725 64) ?x852349)))
 (let ((?x1256299 ((_ extract 151 144) ?x852401)))
 (let (($x734766 (= (_ bv0 8) ?x1256299)))
 (let ((?x852341 (ite $x734766 (_ bv576460752303355724 64) ?x852344)))
 (let ((?x1256837 ((_ extract 159 152) ?x852401)))
 (let (($x733990 (= (_ bv0 8) ?x1256837)))
 (let ((?x852337 (ite $x733990 (_ bv576460752303355723 64) ?x852341)))
 (let ((?x1257056 ((_ extract 167 160) ?x852401)))
 (let (($x691027 (= (_ bv0 8) ?x1257056)))
 (let ((?x852328 (ite $x691027 (_ bv576460752303355722 64) ?x852337)))
 (let ((?x1256804 ((_ extract 175 168) ?x852401)))
 (let (($x690997 (= (_ bv0 8) ?x1256804)))
 (let ((?x852320 (ite $x690997 (_ bv576460752303355721 64) ?x852328)))
 (let ((?x1256456 ((_ extract 183 176) ?x852401)))
 (let (($x682100 (= (_ bv0 8) ?x1256456)))
 (let ((?x852329 (ite $x682100 (_ bv576460752303355720 64) ?x852320)))
 (let ((?x1256455 ((_ extract 191 184) ?x852401)))
 (let (($x567973 (= (_ bv0 8) ?x1256455)))
 (let ((?x852352 (ite $x567973 (_ bv576460752303355719 64) ?x852329)))
 (let ((?x1256390 ((_ extract 199 192) ?x852401)))
 (let (($x563037 (= (_ bv0 8) ?x1256390)))
 (let ((?x852370 (ite $x563037 (_ bv576460752303355718 64) ?x852352)))
 (let ((?x1256363 ((_ extract 207 200) ?x852401)))
 (let (($x560163 (= (_ bv0 8) ?x1256363)))
 (let ((?x852388 (ite $x560163 (_ bv576460752303355717 64) ?x852370)))
 (let ((?x1257060 ((_ extract 215 208) ?x852401)))
 (let (($x532835 (= (_ bv0 8) ?x1257060)))
 (let ((?x852466 (ite $x532835 (_ bv576460752303355716 64) ?x852388)))
 (let ((?x560140 ((_ extract 223 216) ?x852401)))
 (let (($x894226 (= (_ bv0 8) ?x560140)))
 (let ((?x852406 (ite $x894226 (_ bv576460752303355715 64) ?x852466)))
 (let ((?x1256439 ((_ extract 231 224) ?x852401)))
 (let (($x476869 (= (_ bv0 8) ?x1256439)))
 (let ((?x852490 (ite $x476869 (_ bv576460752303355714 64) ?x852406)))
 (let ((?x1256779 ((_ extract 239 232) ?x852401)))
 (let (($x476524 (= (_ bv0 8) ?x1256779)))
 (let ((?x852520 (ite $x476524 (_ bv576460752303355713 64) ?x852490)))
 (let ((?x852396 ((_ extract 247 240) ?x852401)))
 (let (($x894270 (= (_ bv0 8) ?x852396)))
 (let ((?x736906 (ite $x894270 (_ bv576460752303355712 64) ?x852520)))
 (let ((?x737220 (bvsub ?x736906 (_ bv576460752303355712 64))))
 (= ?x737220 strlen_4902_64)))))))))))))))))))))))))))))))))))))))))))))))))))))))))))))))))))))))))))))))))))))))))))))))))))))))))))))))))))))))))))))))))))))))))))))))))))))))))))))))))))))))))))))))))))))))))))))))))))))))))))))))))))))))))))))))))))))))))))))))))))))))))
(minimize strncmp_ret_86_32)
(maximize mem_7fffffffffef030_345_64)
(minimize mem_7fffffffffeefa0_344_64)
(minimize strlen_4902_64)
(maximize filesize_file_0_/proc/self/loginuid_88_64)
(maximize syscall_stub_newfstatat_124_64)
(maximize access_3098_32)
(maximize mem_7fffffffffef038_297_64)
(maximize syscall_stub_newfstatat_220_64)
(minimize mem_7fffffffffeefc8_430_64)
(maximize mem_7fffffffffef425_984_64)
(minimize syscall_stub_readlink_160_64)
(minimize mem_7fffffffffef420_174_8)
(minimize strlen_83_64)
(minimize strlen_986_64)
(maximize mem_2c_3580_264)
(maximize mem_7fffffffffef058_431_64)
(minimize mem_7fffffffffef038_297_64)
(minimize syscall_stub_ioctl_95_32)
(maximize mem_7fffffffffef740_3826_248)
(minimize mem_7fffffffffef030_345_64)
(maximize mem_7fffffffffeefa8_298_64)
(maximize strlen_986_64)
(minimize mem_7fffffffffef048_398_32)
(maximize strlen_3581_64)
(minimize mem_2c_3580_264)
(minimize syscall_stub_newfstatat_124_64)
(minimize filesize_file_0_/proc/self/loginuid_88_64)
(maximize args_1_8)
(minimize mem_7fffffffffef740_3826_248)
(minimize mem_7fffffffffef058_431_64)
(maximize strlen_4902_64)
(maximize access_2286_32)
(minimize mem_7fffffffffeefa8_298_64)
(minimize syscall_stub_newfstatat_220_64)
(maximize mem_7fffffffffeefc8_430_64)
(maximize mem_7fffffffffeefa0_344_64)
(minimize access_3098_32)
(minimize strlen_85_64)
(minimize access_2286_32)
(maximize strncmp_ret_86_32)
(minimize args_1_8)
(maximize syscall_stub_readlink_160_64)
(maximize strncmp_ret_84_32)
(check-sat)
(get-objectives)
